concert-hall-cap/concert-hall-cap.fzn
predicate alldifferent_except_0(array [int] of var int: vs);
array [1..29] of int: X_INTRODUCED_121_ = [1,-2562,-3078,-3078,-3078,-3078,-3478,-3478,-3478,-3478,-3478,-3478,-3731,-3731,-3731,-3731,-3731,-882,-882,-882,-882,-882,-882,-882,-882,-1596,-1596,-1596,-1596];
var {0,3,4,5,6}: X_INTRODUCED_0_;
var {0,3,4,5,6}: X_INTRODUCED_1_;
var {0,3,4,5,6}: X_INTRODUCED_2_;
var {0,1,2,3,4,5,6,7,8,9,10,11,13,14}: X_INTRODUCED_3_;
var {0,3,4,5,6,9,10,11}: X_INTRODUCED_4_;
var {0,3,4,5,6,9,10,11}: X_INTRODUCED_5_;
var {0,3,4,5,6,9,10,11}: X_INTRODUCED_6_;
var {0,3,4,5,6,9,10,11}: X_INTRODUCED_7_;
var {0,3,4,5,6,9,10,11}: X_INTRODUCED_8_;
var {0,3,4,5,6,9,10,11}: X_INTRODUCED_9_;
var {0,3,4,5,6,9,10,11}: X_INTRODUCED_10_;
var 0..14: X_INTRODUCED_11_;
var 0..14: X_INTRODUCED_12_;
var 0..14: X_INTRODUCED_13_;
var 0..14: X_INTRODUCED_14_;
var 0..14: X_INTRODUCED_15_;
var {0,1,2,3,4,5,6,9,10,11,13,14}: X_INTRODUCED_16_;
var {0,1,2,3,4,5,6,9,10,11,13,14}: X_INTRODUCED_17_;
var {0,1,2,3,4,5,6,9,10,11,13,14}: X_INTRODUCED_18_;
var {0,3,4,5,6}: X_INTRODUCED_19_;
var {0,1,2,3,4,5,6,7,8,9,10,11,13,14}: X_INTRODUCED_20_;
var {0,1,2,3,4,5,6,7,8,9,10,11,13,14}: X_INTRODUCED_21_;
var {0,1,2,3,4,5,6,7,8,9,10,11,13,14}: X_INTRODUCED_22_;
var {0,1,2,3,4,5,6,7,8,9,10,11,13,14}: X_INTRODUCED_23_;
var {0,1,2,3,4,5,6,7,8,9,10,11,13,14}: X_INTRODUCED_24_;
var {0,1,2,3,4,5,6,7,8,9,10,11,13,14}: X_INTRODUCED_25_;
var {0,3,4,5,6,9,10,11}: X_INTRODUCED_26_;
var {0,3,4,5,6,9,10,11}: X_INTRODUCED_27_;
var 0..67837: objective:: output_var:: is_defined_var;
var bool: X_INTRODUCED_28_ ::var_is_introduced :: is_defined_var;
var 0..1: X_INTRODUCED_29_ ::var_is_introduced :: is_defined_var;
var bool: X_INTRODUCED_32_ ::var_is_introduced :: is_defined_var;
var 0..1: X_INTRODUCED_33_ ::var_is_introduced :: is_defined_var;
var bool: X_INTRODUCED_36_ ::var_is_introduced :: is_defined_var;
var 0..1: X_INTRODUCED_37_ ::var_is_introduced :: is_defined_var;
var bool: X_INTRODUCED_39_ ::var_is_introduced :: is_defined_var;
var 0..1: X_INTRODUCED_40_ ::var_is_introduced :: is_defined_var;
var bool: X_INTRODUCED_42_ ::var_is_introduced :: is_defined_var;
var 0..1: X_INTRODUCED_43_ ::var_is_introduced :: is_defined_var;
var bool: X_INTRODUCED_45_ ::var_is_introduced :: is_defined_var;
var 0..1: X_INTRODUCED_46_ ::var_is_introduced :: is_defined_var;
var bool: X_INTRODUCED_49_ ::var_is_introduced :: is_defined_var;
var 0..1: X_INTRODUCED_50_ ::var_is_introduced :: is_defined_var;
var bool: X_INTRODUCED_52_ ::var_is_introduced :: is_defined_var;
var 0..1: X_INTRODUCED_53_ ::var_is_introduced :: is_defined_var;
var bool: X_INTRODUCED_55_ ::var_is_introduced :: is_defined_var;
var 0..1: X_INTRODUCED_56_ ::var_is_introduced :: is_defined_var;
var bool: X_INTRODUCED_58_ ::var_is_introduced :: is_defined_var;
var 0..1: X_INTRODUCED_59_ ::var_is_introduced :: is_defined_var;
var bool: X_INTRODUCED_61_ ::var_is_introduced :: is_defined_var;
var 0..1: X_INTRODUCED_62_ ::var_is_introduced :: is_defined_var;
var bool: X_INTRODUCED_64_ ::var_is_introduced :: is_defined_var;
var 0..1: X_INTRODUCED_65_ ::var_is_introduced :: is_defined_var;
var bool: X_INTRODUCED_68_ ::var_is_introduced :: is_defined_var;
var 0..1: X_INTRODUCED_69_ ::var_is_introduced :: is_defined_var;
var bool: X_INTRODUCED_71_ ::var_is_introduced :: is_defined_var;
var 0..1: X_INTRODUCED_72_ ::var_is_introduced :: is_defined_var;
var bool: X_INTRODUCED_74_ ::var_is_introduced :: is_defined_var;
var 0..1: X_INTRODUCED_75_ ::var_is_introduced :: is_defined_var;
var bool: X_INTRODUCED_77_ ::var_is_introduced :: is_defined_var;
var 0..1: X_INTRODUCED_78_ ::var_is_introduced :: is_defined_var;
var bool: X_INTRODUCED_80_ ::var_is_introduced :: is_defined_var;
var 0..1: X_INTRODUCED_81_ ::var_is_introduced :: is_defined_var;
var bool: X_INTRODUCED_84_ ::var_is_introduced :: is_defined_var;
var 0..1: X_INTRODUCED_85_ ::var_is_introduced :: is_defined_var;
var bool: X_INTRODUCED_87_ ::var_is_introduced :: is_defined_var;
var 0..1: X_INTRODUCED_88_ ::var_is_introduced :: is_defined_var;
var bool: X_INTRODUCED_90_ ::var_is_introduced :: is_defined_var;
var 0..1: X_INTRODUCED_91_ ::var_is_introduced :: is_defined_var;
var bool: X_INTRODUCED_93_ ::var_is_introduced :: is_defined_var;
var 0..1: X_INTRODUCED_94_ ::var_is_introduced :: is_defined_var;
var bool: X_INTRODUCED_96_ ::var_is_introduced :: is_defined_var;
var 0..1: X_INTRODUCED_97_ ::var_is_introduced :: is_defined_var;
var bool: X_INTRODUCED_99_ ::var_is_introduced :: is_defined_var;
var 0..1: X_INTRODUCED_100_ ::var_is_introduced :: is_defined_var;
var bool: X_INTRODUCED_102_ ::var_is_introduced :: is_defined_var;
var 0..1: X_INTRODUCED_103_ ::var_is_introduced :: is_defined_var;
var bool: X_INTRODUCED_105_ ::var_is_introduced :: is_defined_var;
var 0..1: X_INTRODUCED_106_ ::var_is_introduced :: is_defined_var;
var bool: X_INTRODUCED_109_ ::var_is_introduced :: is_defined_var;
var 0..1: X_INTRODUCED_110_ ::var_is_introduced :: is_defined_var;
var bool: X_INTRODUCED_112_ ::var_is_introduced :: is_defined_var;
var 0..1: X_INTRODUCED_113_ ::var_is_introduced :: is_defined_var;
var bool: X_INTRODUCED_115_ ::var_is_introduced :: is_defined_var;
var 0..1: X_INTRODUCED_116_ ::var_is_introduced :: is_defined_var;
var bool: X_INTRODUCED_122_ ::var_is_introduced :: is_defined_var;
var bool: X_INTRODUCED_123_ ::var_is_introduced :: is_defined_var;
var bool: X_INTRODUCED_124_ ::var_is_introduced :: is_defined_var;
var bool: X_INTRODUCED_125_ ::var_is_introduced :: is_defined_var;
var bool: X_INTRODUCED_126_ ::var_is_introduced :: is_defined_var;
var bool: X_INTRODUCED_127_ ::var_is_introduced :: is_defined_var;
var bool: X_INTRODUCED_128_ ::var_is_introduced :: is_defined_var;
var bool: X_INTRODUCED_129_ ::var_is_introduced :: is_defined_var;
var bool: X_INTRODUCED_130_ ::var_is_introduced :: is_defined_var;
var bool: X_INTRODUCED_131_ ::var_is_introduced :: is_defined_var;
var bool: X_INTRODUCED_132_ ::var_is_introduced :: is_defined_var;
var bool: X_INTRODUCED_133_ ::var_is_introduced :: is_defined_var;
var bool: X_INTRODUCED_134_ ::var_is_introduced :: is_defined_var;
var bool: X_INTRODUCED_135_ ::var_is_introduced :: is_defined_var;
var 0..1: X_INTRODUCED_137_ ::var_is_introduced :: is_defined_var;
var 0..1: X_INTRODUCED_138_ ::var_is_introduced :: is_defined_var;
var 0..1: X_INTRODUCED_139_ ::var_is_introduced :: is_defined_var;
var 0..1: X_INTRODUCED_140_ ::var_is_introduced :: is_defined_var;
var 0..1: X_INTRODUCED_141_ ::var_is_introduced :: is_defined_var;
var 0..1: X_INTRODUCED_142_ ::var_is_introduced :: is_defined_var;
var 0..1: X_INTRODUCED_143_ ::var_is_introduced :: is_defined_var;
var 0..1: X_INTRODUCED_144_ ::var_is_introduced :: is_defined_var;
var 0..1: X_INTRODUCED_145_ ::var_is_introduced :: is_defined_var;
var 0..1: X_INTRODUCED_146_ ::var_is_introduced :: is_defined_var;
var 0..1: X_INTRODUCED_147_ ::var_is_introduced :: is_defined_var;
var 0..1: X_INTRODUCED_148_ ::var_is_introduced :: is_defined_var;
var 0..1: X_INTRODUCED_149_ ::var_is_introduced :: is_defined_var;
var 0..1: X_INTRODUCED_150_ ::var_is_introduced :: is_defined_var;
array [1..28] of var int: assign:: output_array([1..28]) = [X_INTRODUCED_0_,X_INTRODUCED_1_,X_INTRODUCED_2_,X_INTRODUCED_3_,X_INTRODUCED_4_,X_INTRODUCED_5_,X_INTRODUCED_6_,X_INTRODUCED_7_,X_INTRODUCED_8_,X_INTRODUCED_9_,X_INTRODUCED_10_,X_INTRODUCED_11_,X_INTRODUCED_12_,X_INTRODUCED_13_,X_INTRODUCED_14_,X_INTRODUCED_15_,X_INTRODUCED_16_,X_INTRODUCED_17_,X_INTRODUCED_18_,X_INTRODUCED_19_,X_INTRODUCED_20_,X_INTRODUCED_21_,X_INTRODUCED_22_,X_INTRODUCED_23_,X_INTRODUCED_24_,X_INTRODUCED_25_,X_INTRODUCED_26_,X_INTRODUCED_27_];
array [1..29] of var int: X_INTRODUCED_120_ ::var_is_introduced  = [objective,X_INTRODUCED_29_,X_INTRODUCED_33_,X_INTRODUCED_37_,X_INTRODUCED_40_,X_INTRODUCED_43_,X_INTRODUCED_46_,X_INTRODUCED_50_,X_INTRODUCED_53_,X_INTRODUCED_56_,X_INTRODUCED_59_,X_INTRODUCED_62_,X_INTRODUCED_65_,X_INTRODUCED_69_,X_INTRODUCED_72_,X_INTRODUCED_75_,X_INTRODUCED_78_,X_INTRODUCED_81_,X_INTRODUCED_85_,X_INTRODUCED_88_,X_INTRODUCED_91_,X_INTRODUCED_94_,X_INTRODUCED_97_,X_INTRODUCED_100_,X_INTRODUCED_103_,X_INTRODUCED_106_,X_INTRODUCED_110_,X_INTRODUCED_113_,X_INTRODUCED_116_];
array [1..42] of var int: X_INTRODUCED_152_ ::var_is_introduced  = [X_INTRODUCED_137_,X_INTRODUCED_138_,X_INTRODUCED_139_,X_INTRODUCED_140_,X_INTRODUCED_141_,X_INTRODUCED_142_,X_INTRODUCED_143_,X_INTRODUCED_144_,X_INTRODUCED_145_,X_INTRODUCED_146_,X_INTRODUCED_147_,X_INTRODUCED_148_,X_INTRODUCED_149_,X_INTRODUCED_150_,X_INTRODUCED_0_,X_INTRODUCED_1_,X_INTRODUCED_2_,X_INTRODUCED_3_,X_INTRODUCED_4_,X_INTRODUCED_5_,X_INTRODUCED_6_,X_INTRODUCED_7_,X_INTRODUCED_8_,X_INTRODUCED_9_,X_INTRODUCED_10_,X_INTRODUCED_11_,X_INTRODUCED_12_,X_INTRODUCED_13_,X_INTRODUCED_14_,X_INTRODUCED_15_,X_INTRODUCED_16_,X_INTRODUCED_17_,X_INTRODUCED_18_,X_INTRODUCED_19_,X_INTRODUCED_20_,X_INTRODUCED_21_,X_INTRODUCED_22_,X_INTRODUCED_23_,X_INTRODUCED_24_,X_INTRODUCED_25_,X_INTRODUCED_26_,X_INTRODUCED_27_];
constraint alldifferent_except_0(assign):: bounds;
constraint int_lin_eq(X_INTRODUCED_121_,X_INTRODUCED_120_,0):: defines_var(objective);
constraint int_le_reif(1,X_INTRODUCED_0_,X_INTRODUCED_28_):: defines_var(X_INTRODUCED_28_);
constraint bool2int(X_INTRODUCED_28_,X_INTRODUCED_29_):: defines_var(X_INTRODUCED_29_);
constraint int_le_reif(1,X_INTRODUCED_1_,X_INTRODUCED_32_):: defines_var(X_INTRODUCED_32_);
constraint bool2int(X_INTRODUCED_32_,X_INTRODUCED_33_):: defines_var(X_INTRODUCED_33_);
constraint int_le_reif(1,X_INTRODUCED_2_,X_INTRODUCED_36_):: defines_var(X_INTRODUCED_36_);
constraint bool2int(X_INTRODUCED_36_,X_INTRODUCED_37_):: defines_var(X_INTRODUCED_37_);
constraint int_le_reif(1,X_INTRODUCED_3_,X_INTRODUCED_39_):: defines_var(X_INTRODUCED_39_);
constraint bool2int(X_INTRODUCED_39_,X_INTRODUCED_40_):: defines_var(X_INTRODUCED_40_);
constraint int_le_reif(1,X_INTRODUCED_4_,X_INTRODUCED_42_):: defines_var(X_INTRODUCED_42_);
constraint bool2int(X_INTRODUCED_42_,X_INTRODUCED_43_):: defines_var(X_INTRODUCED_43_);
constraint int_le_reif(1,X_INTRODUCED_5_,X_INTRODUCED_45_):: defines_var(X_INTRODUCED_45_);
constraint bool2int(X_INTRODUCED_45_,X_INTRODUCED_46_):: defines_var(X_INTRODUCED_46_);
constraint int_le_reif(1,X_INTRODUCED_6_,X_INTRODUCED_49_):: defines_var(X_INTRODUCED_49_);
constraint bool2int(X_INTRODUCED_49_,X_INTRODUCED_50_):: defines_var(X_INTRODUCED_50_);
constraint int_le_reif(1,X_INTRODUCED_7_,X_INTRODUCED_52_):: defines_var(X_INTRODUCED_52_);
constraint bool2int(X_INTRODUCED_52_,X_INTRODUCED_53_):: defines_var(X_INTRODUCED_53_);
constraint int_le_reif(1,X_INTRODUCED_8_,X_INTRODUCED_55_):: defines_var(X_INTRODUCED_55_);
constraint bool2int(X_INTRODUCED_55_,X_INTRODUCED_56_):: defines_var(X_INTRODUCED_56_);
constraint int_le_reif(1,X_INTRODUCED_9_,X_INTRODUCED_58_):: defines_var(X_INTRODUCED_58_);
constraint bool2int(X_INTRODUCED_58_,X_INTRODUCED_59_):: defines_var(X_INTRODUCED_59_);
constraint int_le_reif(1,X_INTRODUCED_10_,X_INTRODUCED_61_):: defines_var(X_INTRODUCED_61_);
constraint bool2int(X_INTRODUCED_61_,X_INTRODUCED_62_):: defines_var(X_INTRODUCED_62_);
constraint int_le_reif(1,X_INTRODUCED_11_,X_INTRODUCED_64_):: defines_var(X_INTRODUCED_64_);
constraint bool2int(X_INTRODUCED_64_,X_INTRODUCED_65_):: defines_var(X_INTRODUCED_65_);
constraint int_le_reif(1,X_INTRODUCED_12_,X_INTRODUCED_68_):: defines_var(X_INTRODUCED_68_);
constraint bool2int(X_INTRODUCED_68_,X_INTRODUCED_69_):: defines_var(X_INTRODUCED_69_);
constraint int_le_reif(1,X_INTRODUCED_13_,X_INTRODUCED_71_):: defines_var(X_INTRODUCED_71_);
constraint bool2int(X_INTRODUCED_71_,X_INTRODUCED_72_):: defines_var(X_INTRODUCED_72_);
constraint int_le_reif(1,X_INTRODUCED_14_,X_INTRODUCED_74_):: defines_var(X_INTRODUCED_74_);
constraint bool2int(X_INTRODUCED_74_,X_INTRODUCED_75_):: defines_var(X_INTRODUCED_75_);
constraint int_le_reif(1,X_INTRODUCED_15_,X_INTRODUCED_77_):: defines_var(X_INTRODUCED_77_);
constraint bool2int(X_INTRODUCED_77_,X_INTRODUCED_78_):: defines_var(X_INTRODUCED_78_);
constraint int_le_reif(1,X_INTRODUCED_16_,X_INTRODUCED_80_):: defines_var(X_INTRODUCED_80_);
constraint bool2int(X_INTRODUCED_80_,X_INTRODUCED_81_):: defines_var(X_INTRODUCED_81_);
constraint int_le_reif(1,X_INTRODUCED_17_,X_INTRODUCED_84_):: defines_var(X_INTRODUCED_84_);
constraint bool2int(X_INTRODUCED_84_,X_INTRODUCED_85_):: defines_var(X_INTRODUCED_85_);
constraint int_le_reif(1,X_INTRODUCED_18_,X_INTRODUCED_87_):: defines_var(X_INTRODUCED_87_);
constraint bool2int(X_INTRODUCED_87_,X_INTRODUCED_88_):: defines_var(X_INTRODUCED_88_);
constraint int_le_reif(1,X_INTRODUCED_19_,X_INTRODUCED_90_):: defines_var(X_INTRODUCED_90_);
constraint bool2int(X_INTRODUCED_90_,X_INTRODUCED_91_):: defines_var(X_INTRODUCED_91_);
constraint int_le_reif(1,X_INTRODUCED_20_,X_INTRODUCED_93_):: defines_var(X_INTRODUCED_93_);
constraint bool2int(X_INTRODUCED_93_,X_INTRODUCED_94_):: defines_var(X_INTRODUCED_94_);
constraint int_le_reif(1,X_INTRODUCED_21_,X_INTRODUCED_96_):: defines_var(X_INTRODUCED_96_);
constraint bool2int(X_INTRODUCED_96_,X_INTRODUCED_97_):: defines_var(X_INTRODUCED_97_);
constraint int_le_reif(1,X_INTRODUCED_22_,X_INTRODUCED_99_):: defines_var(X_INTRODUCED_99_);
constraint bool2int(X_INTRODUCED_99_,X_INTRODUCED_100_):: defines_var(X_INTRODUCED_100_);
constraint int_le_reif(1,X_INTRODUCED_23_,X_INTRODUCED_102_):: defines_var(X_INTRODUCED_102_);
constraint bool2int(X_INTRODUCED_102_,X_INTRODUCED_103_):: defines_var(X_INTRODUCED_103_);
constraint int_le_reif(1,X_INTRODUCED_24_,X_INTRODUCED_105_):: defines_var(X_INTRODUCED_105_);
constraint bool2int(X_INTRODUCED_105_,X_INTRODUCED_106_):: defines_var(X_INTRODUCED_106_);
constraint int_le_reif(1,X_INTRODUCED_25_,X_INTRODUCED_109_):: defines_var(X_INTRODUCED_109_);
constraint bool2int(X_INTRODUCED_109_,X_INTRODUCED_110_):: defines_var(X_INTRODUCED_110_);
constraint int_le_reif(1,X_INTRODUCED_26_,X_INTRODUCED_112_):: defines_var(X_INTRODUCED_112_);
constraint bool2int(X_INTRODUCED_112_,X_INTRODUCED_113_):: defines_var(X_INTRODUCED_113_);
constraint int_le_reif(1,X_INTRODUCED_27_,X_INTRODUCED_115_):: defines_var(X_INTRODUCED_115_);
constraint bool2int(X_INTRODUCED_115_,X_INTRODUCED_116_):: defines_var(X_INTRODUCED_116_);
constraint int_le_reif(X_INTRODUCED_11_,0,X_INTRODUCED_122_):: defines_var(X_INTRODUCED_122_);
constraint int_le_reif(X_INTRODUCED_12_,0,X_INTRODUCED_123_):: defines_var(X_INTRODUCED_123_);
constraint int_le_reif(X_INTRODUCED_13_,0,X_INTRODUCED_124_):: defines_var(X_INTRODUCED_124_);
constraint int_le_reif(X_INTRODUCED_1_,0,X_INTRODUCED_125_):: defines_var(X_INTRODUCED_125_);
constraint int_le_reif(X_INTRODUCED_2_,0,X_INTRODUCED_126_):: defines_var(X_INTRODUCED_126_);
constraint int_le_reif(X_INTRODUCED_3_,0,X_INTRODUCED_127_):: defines_var(X_INTRODUCED_127_);
constraint int_le_reif(X_INTRODUCED_4_,0,X_INTRODUCED_128_):: defines_var(X_INTRODUCED_128_);
constraint int_le_reif(X_INTRODUCED_0_,0,X_INTRODUCED_129_):: defines_var(X_INTRODUCED_129_);
constraint int_le_reif(X_INTRODUCED_5_,0,X_INTRODUCED_130_):: defines_var(X_INTRODUCED_130_);
constraint int_le_reif(X_INTRODUCED_6_,0,X_INTRODUCED_131_):: defines_var(X_INTRODUCED_131_);
constraint int_le_reif(X_INTRODUCED_7_,0,X_INTRODUCED_132_):: defines_var(X_INTRODUCED_132_);
constraint int_le_reif(X_INTRODUCED_8_,0,X_INTRODUCED_133_):: defines_var(X_INTRODUCED_133_);
constraint int_le_reif(X_INTRODUCED_9_,0,X_INTRODUCED_134_):: defines_var(X_INTRODUCED_134_);
constraint int_le_reif(X_INTRODUCED_10_,0,X_INTRODUCED_135_):: defines_var(X_INTRODUCED_135_);
constraint bool2int(X_INTRODUCED_122_,X_INTRODUCED_137_):: defines_var(X_INTRODUCED_137_);
constraint bool2int(X_INTRODUCED_123_,X_INTRODUCED_138_):: defines_var(X_INTRODUCED_138_);
constraint bool2int(X_INTRODUCED_124_,X_INTRODUCED_139_):: defines_var(X_INTRODUCED_139_);
constraint bool2int(X_INTRODUCED_125_,X_INTRODUCED_140_):: defines_var(X_INTRODUCED_140_);
constraint bool2int(X_INTRODUCED_126_,X_INTRODUCED_141_):: defines_var(X_INTRODUCED_141_);
constraint bool2int(X_INTRODUCED_127_,X_INTRODUCED_142_):: defines_var(X_INTRODUCED_142_);
constraint bool2int(X_INTRODUCED_128_,X_INTRODUCED_143_):: defines_var(X_INTRODUCED_143_);
constraint bool2int(X_INTRODUCED_129_,X_INTRODUCED_144_):: defines_var(X_INTRODUCED_144_);
constraint bool2int(X_INTRODUCED_130_,X_INTRODUCED_145_):: defines_var(X_INTRODUCED_145_);
constraint bool2int(X_INTRODUCED_131_,X_INTRODUCED_146_):: defines_var(X_INTRODUCED_146_);
constraint bool2int(X_INTRODUCED_132_,X_INTRODUCED_147_):: defines_var(X_INTRODUCED_147_);
constraint bool2int(X_INTRODUCED_133_,X_INTRODUCED_148_):: defines_var(X_INTRODUCED_148_);
constraint bool2int(X_INTRODUCED_134_,X_INTRODUCED_149_):: defines_var(X_INTRODUCED_149_);
constraint bool2int(X_INTRODUCED_135_,X_INTRODUCED_150_):: defines_var(X_INTRODUCED_150_);
solve :: int_search(X_INTRODUCED_152_,input_order,indomain_min,complete) maximize objective;
